p cnf 27 29
8 9 11 -16 -7 0
17 -12 -10 22 9 0
-22 19 13 15 0
-22 -13 -19 15 0
2 7 9 -21 13 17 23 -1 0
3 7 -8 13 -14 -10 24 -4 0
25 11 -18 0
1 5 -25 8 -19 -14 -7 -6 -4 -2 0
2 -12 20 -25 9 0
-12 -25 9 -20 -2 0
-16 21 -10 -25 0
-25 23 7 -19 -2 0
1 -7 -25 -23 -19 0
2 -25 23 7 -19 0
-6 3 5 26 -4 0
8 -14 -26 23 0
-8 -23 -14 -26 0
2 -19 -14 -7 -3 -1 0
17 -21 15 0
-16 1 20 21 -23 13 0
1 -25 9 12 13 -16 21 23 -2 0
4 -3 0
27 -20 -1 0
-16 -27 -24 -6 15 0
-16 17 -27 -10 -23 13 0
17 13 -27 -10 -7 -23 0
-8 19 14 7 0
-13 -27 -26 21 -19 0
-5 6 0
